c turning on binary mode checking
c parsing input formula with 259840 variables and 1039934 clauses
c finished parsing, read 2945539 bytes from proof file
c detected empty clause; start verification via backward checking
c 2704 of 1039934 clauses in core                            
c 717 of 118861 lemmas in core using 17863 resolution steps
c 0 RAT lemmas in core; 68 redundant literals in core lemmas
s VERIFIED
c verification time: 1.220 seconds
